50
164
164
165
165
165
164
165
164
164
164
164
165
164
164
164
165
165
165
164
165
165
164
164
164
165
165
164
164
164
164
164
165
165
164
164
165
165
164
165
164
164
164
164
165
164
165
165
165
164
164
